<?xml version = "1.0" standalone="yes"?>
<!-- This file has been generated by DOcplex version 2.23.222  -->
<CPLEXSolution version="1.0">
 <header
   problemName="CVRP"
   objectiveValue="13032.2"
  />
 <variables>
  <variable name="x_0_2" index="1" value="1.00000"/>
  <variable name="x_0_4" index="3" value="1.00000"/>
  <variable name="x_0_5" index="4" value="1.00000"/>
  <variable name="x_0_6" index="5" value="1.00000"/>
  <variable name="x_0_7" index="6" value="1.00000"/>
  <variable name="x_0_8" index="7" value="1.00000"/>
  <variable name="x_0_9" index="8" value="1.00000"/>
  <variable name="x_0_13" index="12" value="1.00000"/>
  <variable name="x_0_14" index="13" value="1.00000"/>
  <variable name="x_0_17" index="16" value="1.00000"/>
  <variable name="x_0_19" index="18" value="1.00000"/>
  <variable name="x_0_20" index="19" value="1.00000"/>
  <variable name="x_0_21" index="20" value="1.00000"/>
  <variable name="x_0_24" index="23" value="1.00000"/>
  <variable name="x_0_26" index="25" value="1.00000"/>
  <variable name="x_1_0" index="26" value="1.00000"/>
  <variable name="x_2_25" index="76" value="1.00000"/>
  <variable name="x_3_0" index="78" value="1.00000"/>
  <variable name="x_4_0" index="104" value="1.00000"/>
  <variable name="x_5_16" index="145" value="1.00000"/>
  <variable name="x_6_0" index="156" value="1.00000"/>
  <variable name="x_7_0" index="182" value="1.00000"/>
  <variable name="x_8_18" index="225" value="1.00000"/>
  <variable name="x_9_11" index="244" value="1.00000"/>
  <variable name="x_10_0" index="260" value="1.00000"/>
  <variable name="x_11_3" index="289" value="1.00000"/>
  <variable name="x_12_0" index="312" value="1.00000"/>
  <variable name="x_13_0" index="338" value="1.00000"/>
  <variable name="x_14_12" index="376" value="1.00000"/>
  <variable name="x_15_0" index="390" value="1.00000"/>
  <variable name="x_16_0" index="416" value="1.00000"/>
  <variable name="x_17_15" index="457" value="1.00000"/>
  <variable name="x_18_0" index="468" value="1.00000"/>
  <variable name="x_19_23" index="516" value="1.00000"/>
  <variable name="x_20_22" index="541" value="1.00000"/>
  <variable name="x_21_1" index="547" value="1.00000"/>
  <variable name="x_22_0" index="572" value="1.00000"/>
  <variable name="x_23_0" index="598" value="1.00000"/>
  <variable name="x_24_10" index="634" value="1.00000"/>
  <variable name="x_25_0" index="650" value="1.00000"/>
  <variable name="x_26_0" index="676" value="1.00000"/>
  <variable name="u_1" index="702" value="59.00000"/>
  <variable name="u_2" index="703" value="48.00000"/>
  <variable name="u_3" index="704" value="63.00000"/>
  <variable name="u_4" index="705" value="58.00000"/>
  <variable name="u_5" index="706" value="3.00000"/>
  <variable name="u_6" index="707" value="56.00000"/>
  <variable name="u_7" index="708" value="54.00000"/>
  <variable name="u_8" index="709" value="47.00000"/>
  <variable name="u_9" index="710" value="8.00000"/>
  <variable name="u_10" index="711" value="56.00000"/>
  <variable name="u_11" index="712" value="32.00000"/>
  <variable name="u_12" index="713" value="60.00000"/>
  <variable name="u_13" index="714" value="54.00000"/>
  <variable name="u_14" index="715" value="25.00000"/>
  <variable name="u_15" index="716" value="57.00000"/>
  <variable name="u_16" index="717" value="62.00000"/>
  <variable name="u_17" index="718" value="47.00000"/>
  <variable name="u_18" index="719" value="61.00000"/>
  <variable name="u_19" index="720" value="25.00000"/>
  <variable name="u_20" index="721" value="30.00000"/>
  <variable name="u_21" index="722" value="32.00000"/>
  <variable name="u_22" index="723" value="60.00000"/>
  <variable name="u_23" index="724" value="48.00000"/>
  <variable name="u_24" index="725" value="28.00000"/>
  <variable name="u_25" index="726" value="61.00000"/>
  <variable name="u_26" index="727" value="29.00000"/>
 </variables>
</CPLEXSolution>
